NAME : 4
COMMENT : Generated instance No. 4
TYPE : CVRP
DIMENSION : 21
EDGE_WEIGHT_TYPE : EUC_2D
CAPACITY : 25
NODE_COORD_SECTION
 1 500 500
 2 294 385
 3 851 316
 4 169 556
 5 936 696
 6 570 97
 7 615 990
 8 140 518
 9 877 740
 10 697 702
 11 359 293
 12 809 810
 13 867 913
 14 511 501
 15 798 649
 16 701 795
 17 890 337
 18 375 93
 19 578 35
 20 465 542
 21 286 590
DEMAND_SECTION
1 0
2 6
3 1
4 4
5 2
6 6
7 7
8 6
9 3
10 4
11 5
12 1
13 8
14 5
15 4
16 4
17 4
18 5
19 7
20 4
21 6
DEPOT_SECTION
 1
 -1
EOF